(set-option :timeout 5000)
(declare-fun tvw_ar1 (Int) Int)
(declare-fun tvw_ar2 (Int) Int)
(declare-fun tvw_n () Int)
(declare-fun tvw_m () Int)
(assert (=  (mod  (+  tvw_m   tvw_n )   2 )   1 ) )
(assert (<=  0   (div  (+  tvw_n   tvw_m )   2 ) ) )
(assert (and  (or (>  0   tvw_n ) (<  0   tvw_n ))   (or (>  0   tvw_m ) (<  0   tvw_m )) ) )
(assert (>  (tvw_ar1 (+  (+  (+  (+  (+  (+  0   0 )   0 )   0 )   0 )   0 )   0 ) )   (tvw_ar2 (+  (+  (+  (+  (+  (+  0   0 )   0 )   0 )   0 )   0 )   0 ) ) ) )
(assert (not  (<=  1   (div  (+  tvw_n   tvw_m )   2 ) ) ) )
(check-sat)(get-model)
